$POSCAR   2  N  C                       
   1.00000000000000     
    20.0000000000000000    0.0000000000000000    0.0000000000000000
     0.0000000000000000   20.0000000000000000    0.0000000000000000
     0.0000000000000000    0.0000000000000000   20.0000000000000000
   N    C 
    12    48
Selective dynamics
Direct
  0.4006409535271163  0.6182720031247345  0.5939254567847569   T   T   T
  0.3412657504490779  0.5715435878896964  0.4687093048560479   T   T   T
  0.3594831274948000  0.4431601864526180  0.5912712417592051   T   T   T
  0.4892934166549247  0.6514972594353201  0.4092934072981517   T   T   T
  0.4498489408200311  0.5351369774651080  0.3299481780845715   T   T   T
  0.3809146883779905  0.3678981651012256  0.4676649293908878   T   T   T
  0.6190853116220095  0.6321018348987744  0.5323350706091123   T   T   T
  0.5501510591799688  0.4648630225348921  0.6700518219154281   T   T   T
  0.5107065833450756  0.3485027405646798  0.5907065927018482   T   T   T
  0.6405168725052068  0.5568398135473815  0.4087287582407950   T   T   T
  0.6587342495509219  0.4284564121103038  0.5312906951439520   T   T   T
  0.5993590464728836  0.3817279968752653  0.4060745432152434   T   T   T
  0.3354833352556295  0.5348901663232768  0.5286072231100772   T   T   T
  0.3646084691343940  0.5571537397420343  0.5890725605081853   T   T   T
  0.3849711556766647  0.6267296435276736  0.4706166665849340   T   T   T
  0.4133411579328236  0.6504254619525097  0.5316214802329546   T   T   T
  0.4794892513432772  0.6730956911730651  0.5302646325191805   T   T   T
  0.4241083913668515  0.6249076861654993  0.4120785091478610   T   T   T
  0.4633408952182310  0.6148229890057322  0.6280024177197826   T   T   T
  0.3805355193464059  0.5005081646689579  0.6270937942176515   T   T   T
  0.3549152378580514  0.5347961104290160  0.4097404522634842   T   T   T
  0.3326604754340670  0.4645166948558536  0.5297729273236941   T   T   T
  0.5115615774360627  0.6504984731835439  0.5908124937638812   T   T   T
  0.4051010014239219  0.5683167285986860  0.3741543683027301   T   T   T
  0.4399987003305805  0.4984436223895778  0.6664789689795405   T   T   T
  0.3518873901730715  0.4635033092344285  0.4103038112271274   T   T   T
  0.4813367733389532  0.5575560190244133  0.6654534925775771   T   T   T
  0.5187485656873783  0.6708848003772672  0.4707091432609402   T   T   T
  0.3419807720682973  0.4275522698187683  0.4694738506552129   T   T   T
  0.5786814620076975  0.6280863260574611  0.5911322225854919   T   T   T
  0.4046056273344022  0.3891571192197228  0.5878939417230162   T   T   T
  0.5485846161832718  0.5361148245576149  0.6650498366354761   T   T   T
  0.5845675335670747  0.6469298105950728  0.4719553442175920   T   T   T
  0.5364829004833199  0.6133390141693170  0.3735630560860179   T   T   T
  0.4824815171482768  0.4428838760228633  0.6660627059020120   T   T   T
  0.4022243529734201  0.4289082593323357  0.3719009403495974   T   T   T
  0.5175184828517235  0.5571161239771368  0.3339372940979877   T   T   T
  0.5977756470265799  0.5710917406676642  0.6280990596504030   T   T   T
  0.4514153838167279  0.4638851754423849  0.3349501633645240   T   T   T
  0.4635170995166800  0.3866609858306826  0.6264369439139820   T   T   T
  0.4154324664329255  0.3530701894049271  0.5280446557824080   T   T   T
  0.5953943726655976  0.6108428807802774  0.4121060582769838   T   T   T
  0.4213185379923023  0.3719136739425389  0.4088677774145080   T   T   T
  0.5186632266610468  0.4424439809755865  0.3345465074224232   T   T   T
  0.6580192279317025  0.5724477301812316  0.5305261493447875   T   T   T
  0.5600012996694195  0.5015563776104219  0.3335210310204594   T   T   T
  0.4812514343126217  0.3291151996227325  0.5292908567390598   T   T   T
  0.6481126098269285  0.5364966907655716  0.5896961887728726   T   T   T
  0.5948989985760781  0.4316832714013142  0.6258456316972699   T   T   T
  0.4884384225639374  0.3495015268164561  0.4091875062361190   T   T   T
  0.5366591047817694  0.3851770109942679  0.3719975822802171   T   T   T
  0.6673395245659334  0.5354833051441464  0.4702270726763061   T   T   T
  0.6450847621419487  0.4652038895709841  0.5902595477365155   T   T   T
  0.5758916086331485  0.3750923138345007  0.5879214908521389   T   T   T
  0.6194644806535942  0.4994918353310423  0.3729062057823490   T   T   T
  0.5205107486567229  0.3269043088269349  0.4697353674808191   T   T   T
  0.6353915308656131  0.4428462602579656  0.4109274394918141   T   T   T
  0.5866588420671764  0.3495745380474899  0.4683785197670455   T   T   T
  0.6150288443233357  0.3732703564723263  0.5293833334150658   T   T   T
  0.6645166647443702  0.4651098336767232  0.4713927768899226   T   T   T
 
  0.00000000E+00  0.00000000E+00  0.00000000E+00
  0.00000000E+00  0.00000000E+00  0.00000000E+00
  0.00000000E+00  0.00000000E+00  0.00000000E+00
  0.00000000E+00  0.00000000E+00  0.00000000E+00
  0.00000000E+00  0.00000000E+00  0.00000000E+00
  0.00000000E+00  0.00000000E+00  0.00000000E+00
  0.00000000E+00  0.00000000E+00  0.00000000E+00
  0.00000000E+00  0.00000000E+00  0.00000000E+00
  0.00000000E+00  0.00000000E+00  0.00000000E+00
  0.00000000E+00  0.00000000E+00  0.00000000E+00
  0.00000000E+00  0.00000000E+00  0.00000000E+00
  0.00000000E+00  0.00000000E+00  0.00000000E+00
  0.00000000E+00  0.00000000E+00  0.00000000E+00
  0.00000000E+00  0.00000000E+00  0.00000000E+00
  0.00000000E+00  0.00000000E+00  0.00000000E+00
  0.00000000E+00  0.00000000E+00  0.00000000E+00
  0.00000000E+00  0.00000000E+00  0.00000000E+00
  0.00000000E+00  0.00000000E+00  0.00000000E+00
  0.00000000E+00  0.00000000E+00  0.00000000E+00
  0.00000000E+00  0.00000000E+00  0.00000000E+00
  0.00000000E+00  0.00000000E+00  0.00000000E+00
  0.00000000E+00  0.00000000E+00  0.00000000E+00
  0.00000000E+00  0.00000000E+00  0.00000000E+00
  0.00000000E+00  0.00000000E+00  0.00000000E+00
  0.00000000E+00  0.00000000E+00  0.00000000E+00
  0.00000000E+00  0.00000000E+00  0.00000000E+00
  0.00000000E+00  0.00000000E+00  0.00000000E+00
  0.00000000E+00  0.00000000E+00  0.00000000E+00
  0.00000000E+00  0.00000000E+00  0.00000000E+00
  0.00000000E+00  0.00000000E+00  0.00000000E+00
  0.00000000E+00  0.00000000E+00  0.00000000E+00
  0.00000000E+00  0.00000000E+00  0.00000000E+00
  0.00000000E+00  0.00000000E+00  0.00000000E+00
  0.00000000E+00  0.00000000E+00  0.00000000E+00
  0.00000000E+00  0.00000000E+00  0.00000000E+00
  0.00000000E+00  0.00000000E+00  0.00000000E+00
  0.00000000E+00  0.00000000E+00  0.00000000E+00
  0.00000000E+00  0.00000000E+00  0.00000000E+00
  0.00000000E+00  0.00000000E+00  0.00000000E+00
  0.00000000E+00  0.00000000E+00  0.00000000E+00
  0.00000000E+00  0.00000000E+00  0.00000000E+00
  0.00000000E+00  0.00000000E+00  0.00000000E+00
  0.00000000E+00  0.00000000E+00  0.00000000E+00
  0.00000000E+00  0.00000000E+00  0.00000000E+00
  0.00000000E+00  0.00000000E+00  0.00000000E+00
  0.00000000E+00  0.00000000E+00  0.00000000E+00
  0.00000000E+00  0.00000000E+00  0.00000000E+00
  0.00000000E+00  0.00000000E+00  0.00000000E+00
  0.00000000E+00  0.00000000E+00  0.00000000E+00
  0.00000000E+00  0.00000000E+00  0.00000000E+00
  0.00000000E+00  0.00000000E+00  0.00000000E+00
  0.00000000E+00  0.00000000E+00  0.00000000E+00
  0.00000000E+00  0.00000000E+00  0.00000000E+00
  0.00000000E+00  0.00000000E+00  0.00000000E+00
  0.00000000E+00  0.00000000E+00  0.00000000E+00
  0.00000000E+00  0.00000000E+00  0.00000000E+00
  0.00000000E+00  0.00000000E+00  0.00000000E+00
  0.00000000E+00  0.00000000E+00  0.00000000E+00
  0.00000000E+00  0.00000000E+00  0.00000000E+00
  0.00000000E+00  0.00000000E+00  0.00000000E+00
