System=cluster
ISTART=0
ENCUT=520.0
EDIFF=1E-04
EDIFFG=-0.02
NSW=70
IBRION=2
ISIF=2
NPAR=4
ISMEAR=0
LREAL= Auto
LWAVE= .FALSE.
LCHARG=.FALSE.
POTIM=0.5
