$POSCAR   2  N  C                       
   1.00000000000000     
    20.0000000000000000    0.0000000000000000    0.0000000000000000
     0.0000000000000000   20.0000000000000000    0.0000000000000000
     0.0000000000000000    0.0000000000000000   20.0000000000000000
   N    C 
    12    48
Selective dynamics
Direct
  0.3990243643949327  0.6196001672360548  0.5924550357143062   T   T   T
  0.3308362713411538  0.5360521956636990  0.5317141630558283   T   T   T
  0.4792365102282668  0.6745709783677362  0.5303071195781430   T   T   T
  0.4377300677011178  0.5006097003684338  0.6727776394811391   T   T   T
  0.3516410231714688  0.4636451649852383  0.4079808492571321   T   T   T
  0.4892241885385553  0.6475658611539180  0.4107025942966974   T   T   T
  0.4008136099010981  0.3829121337895672  0.5918907698344399   T   T   T
  0.5183526270506008  0.5595687586015085  0.3298413703669820   T   T   T
  0.6205172997018513  0.6327035877975941  0.5323890837372762   T   T   T
  0.6448869711687185  0.5588715059444970  0.4061795099899592   T   T   T
  0.6470392300388677  0.4643638380246923  0.5912712638908865   T   T   T
  0.5869651450068096  0.3475265032766012  0.4689140587353329   T   T   T
  0.3651662251726628  0.5564413535388056  0.5889111687489923   T   T   T
  0.3846171821508438  0.6282440814459976  0.4706536099088950   T   T   T
  0.4148635668288004  0.6478786255202117  0.5291089372944534   T   T   T
  0.3436075750672703  0.5687339495878371  0.4704137527965405   T   T   T
  0.4206901232076413  0.6292183639039669  0.4082732447142923   T   T   T
  0.4625082873636375  0.6133811448302687  0.6263129104496348   T   T   T
  0.3848803497953363  0.5007586062653283  0.6250188887511385   T   T   T
  0.3549908805713705  0.5343834923150867  0.4113810642684388   T   T   T
  0.3328868229177377  0.4654301582467053  0.5300506870289836   T   T   T
  0.5109925237030135  0.6478027366477528  0.5887214562470953   T   T   T
  0.4033598112386212  0.5719962147692500  0.3717972326720915   T   T   T
  0.3651884313822927  0.4434884301556777  0.5883112965841278   T   T   T
  0.4802654919318254  0.5576679407415891  0.6650216885336712   T   T   T
  0.5185556830878261  0.6679284697435606  0.4709757979723598   T   T   T
  0.3426578983579063  0.4302276404579589  0.4692397373474890   T   T   T
  0.4507640758303247  0.5360801393621232  0.3332921055666793   T   T   T
  0.5783035249664907  0.6280882547037880  0.5893216498975711   T   T   T
  0.5475545056152086  0.5365365228163748  0.6652585994635578   T   T   T
  0.5840555772084647  0.6454249528224557  0.4723936587639307   T   T   T
  0.5366411307223929  0.6103209502296872  0.3759382335375187   T   T   T
  0.4806198190287709  0.4430467980356232  0.6655201607915374   T   T   T
  0.4016325609953180  0.4286222875865128  0.3714780744999531   T   T   T
  0.3830039216773184  0.3723478716172520  0.4703177540745525   T   T   T
  0.5958337874547873  0.5706972671855779  0.6268552836439820   T   T   T
  0.4505549841689621  0.4658517620959210  0.3348368090718882   T   T   T
  0.4618513579557788  0.3860563821502928  0.6281749081071500   T   T   T
  0.4143398338011925  0.3501196118288465  0.5300590966961408   T   T   T
  0.5479978876775288  0.4645378196215050  0.6650755694060964   T   T   T
  0.5955867684668487  0.6098397232492077  0.4123094194192491   T   T   T
  0.4206164451159711  0.3717568127487067  0.4087104100878766   T   T   T
  0.5190685185375944  0.4437222640854845  0.3355549210010754   T   T   T
  0.6570274657115995  0.5711116714298204  0.5298356730738143   T   T   T
  0.5599762036312362  0.5016785269567954  0.3359910272202237   T   T   T
  0.4812023897886415  0.3274797781361888  0.5304592073300484   T   T   T
  0.6440816005191224  0.5346584386192127  0.5881661928653095   T   T   T
  0.5108417521066134  0.3500517464795376  0.5918713327412947   T   T   T
  0.5970191420329000  0.4296646903630534  0.6273404749270383   T   T   T
  0.4885323124147853  0.3487984117126509  0.4088009788980384   T   T   T
  0.5379308444838641  0.3853762507939792  0.3716333969989234   T   T   T
  0.6701276769279786  0.5366706281111264  0.4689084710027522   T   T   T
  0.5783483240681984  0.3724305962344901  0.5902960859401394   T   T   T
  0.6198830994504368  0.5009740765521986  0.3726999528095922   T   T   T
  0.5185489446530606  0.3281190025511748  0.4692850252289958   T   T   T
  0.6380465374224489  0.4433190901878333  0.4101240947538191   T   T   T
  0.6564397404980856  0.4295543164837466  0.5296823732961775   T   T   T
  0.6150606474819549  0.3731348321159165  0.5291430574606806   T   T   T
  0.5973474399444841  0.3857291866997694  0.4095878865968964   T   T   T
  0.6696630186214253  0.4666277330536109  0.4704631835711715   T   T   T
 
  0.00000000E+00  0.00000000E+00  0.00000000E+00
  0.00000000E+00  0.00000000E+00  0.00000000E+00
  0.00000000E+00  0.00000000E+00  0.00000000E+00
  0.00000000E+00  0.00000000E+00  0.00000000E+00
  0.00000000E+00  0.00000000E+00  0.00000000E+00
  0.00000000E+00  0.00000000E+00  0.00000000E+00
  0.00000000E+00  0.00000000E+00  0.00000000E+00
  0.00000000E+00  0.00000000E+00  0.00000000E+00
  0.00000000E+00  0.00000000E+00  0.00000000E+00
  0.00000000E+00  0.00000000E+00  0.00000000E+00
  0.00000000E+00  0.00000000E+00  0.00000000E+00
  0.00000000E+00  0.00000000E+00  0.00000000E+00
  0.00000000E+00  0.00000000E+00  0.00000000E+00
  0.00000000E+00  0.00000000E+00  0.00000000E+00
  0.00000000E+00  0.00000000E+00  0.00000000E+00
  0.00000000E+00  0.00000000E+00  0.00000000E+00
  0.00000000E+00  0.00000000E+00  0.00000000E+00
  0.00000000E+00  0.00000000E+00  0.00000000E+00
  0.00000000E+00  0.00000000E+00  0.00000000E+00
  0.00000000E+00  0.00000000E+00  0.00000000E+00
  0.00000000E+00  0.00000000E+00  0.00000000E+00
  0.00000000E+00  0.00000000E+00  0.00000000E+00
  0.00000000E+00  0.00000000E+00  0.00000000E+00
  0.00000000E+00  0.00000000E+00  0.00000000E+00
  0.00000000E+00  0.00000000E+00  0.00000000E+00
  0.00000000E+00  0.00000000E+00  0.00000000E+00
  0.00000000E+00  0.00000000E+00  0.00000000E+00
  0.00000000E+00  0.00000000E+00  0.00000000E+00
  0.00000000E+00  0.00000000E+00  0.00000000E+00
  0.00000000E+00  0.00000000E+00  0.00000000E+00
  0.00000000E+00  0.00000000E+00  0.00000000E+00
  0.00000000E+00  0.00000000E+00  0.00000000E+00
  0.00000000E+00  0.00000000E+00  0.00000000E+00
  0.00000000E+00  0.00000000E+00  0.00000000E+00
  0.00000000E+00  0.00000000E+00  0.00000000E+00
  0.00000000E+00  0.00000000E+00  0.00000000E+00
  0.00000000E+00  0.00000000E+00  0.00000000E+00
  0.00000000E+00  0.00000000E+00  0.00000000E+00
  0.00000000E+00  0.00000000E+00  0.00000000E+00
  0.00000000E+00  0.00000000E+00  0.00000000E+00
  0.00000000E+00  0.00000000E+00  0.00000000E+00
  0.00000000E+00  0.00000000E+00  0.00000000E+00
  0.00000000E+00  0.00000000E+00  0.00000000E+00
  0.00000000E+00  0.00000000E+00  0.00000000E+00
  0.00000000E+00  0.00000000E+00  0.00000000E+00
  0.00000000E+00  0.00000000E+00  0.00000000E+00
  0.00000000E+00  0.00000000E+00  0.00000000E+00
  0.00000000E+00  0.00000000E+00  0.00000000E+00
  0.00000000E+00  0.00000000E+00  0.00000000E+00
  0.00000000E+00  0.00000000E+00  0.00000000E+00
  0.00000000E+00  0.00000000E+00  0.00000000E+00
  0.00000000E+00  0.00000000E+00  0.00000000E+00
  0.00000000E+00  0.00000000E+00  0.00000000E+00
  0.00000000E+00  0.00000000E+00  0.00000000E+00
  0.00000000E+00  0.00000000E+00  0.00000000E+00
  0.00000000E+00  0.00000000E+00  0.00000000E+00
  0.00000000E+00  0.00000000E+00  0.00000000E+00
  0.00000000E+00  0.00000000E+00  0.00000000E+00
  0.00000000E+00  0.00000000E+00  0.00000000E+00
  0.00000000E+00  0.00000000E+00  0.00000000E+00
